Route #1: 1 19 14 42 41 43 20 42 18 38 1 
Route #2: 1 6 11 35 31 11 34 40 11 39 1 
Route #3: 1 25 24 8 44 8 27 32 8 9 28 1 
Route #4: 1 33 36 22 36 29 4 36 23 2 1 
Route #5: 1 7 15 1 
Route #6: 1 12 3 21 36 30 36 37 36 1 
Route #7: 1 13 5 42 26 42 45 16 11 10 17 1 
Cost 875.0
